(set-info :smt-lib-version 2.6)
(set-logic QF_S)
(set-info :source |
Generated by: Joel Day, Thorsten Ehlers, Mitja Kulczynski, Federico Mora, Florin Manea, Dirk Nowotka, Danny Poulsen, Zhengyang Lu
Application: Test WOORPJE
Target solver: WOORPJE
Publications: Day, J. D., Ehlers, T., Kulczynski, M., Manea, F., Nowotka, D., & Poulsen, D. B. (2019). On solving word equations using SAT. In RP 2019
Description: Transoformed and expanded from Track02
|)
(set-info :license "https://creativecommons.org/licenses/by/4.0/")
(set-info :category "random")
(set-info :status unknown)

(declare-fun S () String)
(declare-fun J () String)
(declare-fun T () String)
(declare-fun R () String)
(declare-fun K () String)
(declare-fun V () String)
(declare-fun G () String)
(declare-fun L () String)
(declare-fun Y () String)
(declare-fun M () String)
(declare-fun Z () String)
(declare-fun P () String)
(declare-fun W () String)
(assert (= (str.++  G J K K K "aa" K "a" G J K K K "aa" K "b" K "aab" R R "b" T W "b" Y)  (str.++  "a" K "aa" K "aa" K "aa" K "aa" M "a" M L M "a" M "a" M L M "ab" S P S P "b" T V T V "b" Z Z "baa") ))
(check-sat)

(exit)
